Number of options: 100
Size of codes: 100
43 36 1 56 30 11 37 79 97 42 56 2 15 23 14 54 13 50 46 8 4 48 73 49 23 3 78 9 47 83 68 31 96 47 71 55 84 22 4 60 67 48 11 77 16 11 30 51 54 73 79 77 50 35 45 80 49 41 25 39 97 82 31 35 43 85 68 45 95 62 81 52 12 5 65 85 33 69 94 54 13 19 57 16 92 79 74 67 86 10 68 87 66 59 37 25 74 93 76 10 
Size of probabilities: 100
0.28 0.37 0.14 0.14 0.07 0.49 0.19 0.05 0.04 0.22 0.04 0.08 0.07 0.46 0.36 0.69 0.19 0.06 0.03 0.03 0.02 0.11 0.05 0.32 0.5 0.03 0.04 0.1 0.04 0.79 0.23 0.13 0.57 0.04 0.04 0.04 0.09 0.26 0.02 0.59 0.34 0.09 0.42 0.06 0.08 0.39 0.01 0.04 0.51 0.04 0.13 0.18 0.15 0.36 0.17 0.01 0.23 0.13 0.24 0.39 0.11 0.1 0.23 0.36 0.2 0.26 0.1 0.04 0.02 0.59 0.26 0.07 0.52 0.04 0.12 0.31 0.14 0.04 0.02 0.49 0.15 0.49 0.16 0.08 0.13 0.08 0.03 0.6 0.22 0.07 0.29 0.13 0.12 0.1 0.37 0.39 0.02 0.07 0.46 0.06 
Number of assortments: 20
Sizes of assortments: 5 5 5 5 5 5 5 5 5 5 5 5 5 5 5 5 5 5 5 5 
-------------------Iteration: 1
CPXPARAM_MIP_Display                             1
CPXPARAM_MIP_Strategy_CallbackReducedLP          0
Tried aggregator 1 time.
LP Presolve eliminated 101 rows and 201 columns.
All rows and columns eliminated.
Presolve time = 0.00 sec. (0.04 ticks)
***********************************************************
Objective value of restricted master problem: 33.12
Lamda: 1 
***********************************************************
CPXPARAM_MIP_Display                             1
CPXPARAM_MIP_Strategy_CallbackReducedLP          0
Tried aggregator 2 times.
MIP Presolve eliminated 651750 rows and 0 columns.
Aggregator did 4950 substitutions.
Reduced MIP has 323820 rows, 5050 columns, and 971100 nonzeros.
Reduced MIP has 4950 binaries, 0 generals, 0 SOSs, and 0 indicators.
Presolve time = 6.08 sec. (2316.18 ticks)
Probing time = 0.36 sec. (14.17 ticks)
Tried aggregator 1 time.
Reduced MIP has 323820 rows, 5050 columns, and 971100 nonzeros.
Reduced MIP has 4950 binaries, 0 generals, 0 SOSs, and 0 indicators.
Presolve time = 1.51 sec. (424.61 ticks)
Probing time = 0.28 sec. (14.17 ticks)
MIP emphasis: balance optimality and feasibility.
MIP search method: dynamic search.
Parallel mode: deterministic, using up to 8 threads.

Node log . . .
Best integer =   0.000000e+00  Node =       0  Best node =  -1.000000e+02
Best integer =  -4.000000e+01  Node =       0  Best node =  -1.000000e+02
***********************************************************

***********************************************************
-------------------Iteration: 2
CPXPARAM_MIP_Display                             1
CPXPARAM_MIP_Strategy_CallbackReducedLP          0
Tried aggregator 1 time.
LP Presolve eliminated 60 rows and 120 columns.
Aggregator did 1 substitutions.
Reduced LP has 40 rows, 81 columns, and 120 nonzeros.
Presolve time = 0.00 sec. (0.07 ticks)
Initializing dual steep norms . . .

Iteration log . . .
Iteration:     1   Dual objective     =            13.810000
***********************************************************
Objective value of restricted master problem: 26.68
Lamda: 0.39 0.61 
***********************************************************
CPXPARAM_MIP_Display                             1
CPXPARAM_MIP_Strategy_CallbackReducedLP          0
Tried aggregator 2 times.
MIP Presolve eliminated 651750 rows and 0 columns.
Aggregator did 4950 substitutions.
Reduced MIP has 323820 rows, 5050 columns, and 971100 nonzeros.
Reduced MIP has 4950 binaries, 0 generals, 0 SOSs, and 0 indicators.
Presolve time = 5.93 sec. (2316.18 ticks)
Probing time = 0.35 sec. (14.17 ticks)
Tried aggregator 1 time.
Reduced MIP has 323820 rows, 5050 columns, and 971100 nonzeros.
Reduced MIP has 4950 binaries, 0 generals, 0 SOSs, and 0 indicators.
Presolve time = 1.41 sec. (424.61 ticks)
Probing time = 0.31 sec. (14.17 ticks)
MIP emphasis: balance optimality and feasibility.
MIP search method: dynamic search.
Parallel mode: deterministic, using up to 8 threads.

Node log . . .
Best integer =   0.000000e+00  Node =       0  Best node =  -8.000000e+01
